
Log started (V12.10.0.0) Fri Apr  9 06:37:18 2021


Problem 'asset.lp' read.
Read time = 0.00 sec. (0.16 ticks)
New value for default parallel thread count: 1
New value for time limit in seconds: 150
Version identifier: 12.10.0.0 | 2019-11-26 | 843d4de
CPXPARAM_Threads                                 1
CPXPARAM_TimeLimit                               150
Found incumbent of value 0.000000 after 0.00 sec. (0.05 ticks)
Tried aggregator 3 times.
MIP Presolve eliminated 580 rows and 279 columns.
MIP Presolve modified 1223 coefficients.
Aggregator did 452 substitutions.
Reduced MIP has 497 rows, 693 columns, and 2762 nonzeros.
Reduced MIP has 602 binaries, 66 generals, 0 SOSs, and 0 indicators.
Presolve time = 0.01 sec. (5.50 ticks)
Probing fixed 8 vars, tightened 3 bounds.
Probing time = 0.00 sec. (1.64 ticks)
Tried aggregator 1 time.
Detecting symmetries...
MIP Presolve eliminated 18 rows and 18 columns.
MIP Presolve modified 54 coefficients.
Reduced MIP has 479 rows, 675 columns, and 2604 nonzeros.
Reduced MIP has 587 binaries, 63 generals, 0 SOSs, and 0 indicators.
Presolve time = 0.00 sec. (2.64 ticks)
Probing time = 0.00 sec. (1.48 ticks)
Clique table members: 1781.
MIP emphasis: balance optimality and feasibility.
MIP search method: dynamic search.
Parallel mode: none, using 1 thread.
Root relaxation solution time = 0.00 sec. (4.15 ticks)

        Nodes                                         Cuts/
   Node  Left     Objective  IInf  Best Integer    Best Bound    ItCnt     Gap

*     0+    0                            0.0000      160.0000              --- 
      0     0      154.8954   138        0.0000      154.8954      255     --- 
      0     0      143.3784   138        0.0000     Cuts: 219      642     --- 
      0     0      139.1242   138        0.0000     Cuts: 204      823     --- 
      0     0      138.8990   138        0.0000     Cuts: 133      937     --- 
      0     0      138.7169   138        0.0000     Cuts: 115     1002     --- 
      0     0      138.5669   138        0.0000      Cuts: 88     1076     --- 
      0     0      138.3937   138        0.0000      Cuts: 63     1143     --- 
      0     0      138.2571   138        0.0000     Cuts: 103     1188     --- 
      0     0      138.1667   138        0.0000      Cuts: 90     1230     --- 
      0     0      138.1593   138        0.0000      Cuts: 82     1303     --- 
      0     0      138.1212   138        0.0000      Cuts: 32     1329     --- 
      0     0      138.0909   138        0.0000     Cuts: 124     1403     --- 
      0     0      137.9229   138        0.0000     Cuts: 122     1467     --- 
      0     0      137.7842   138        0.0000     Cuts: 125     1515     --- 
      0     0      137.7842   138        0.0000      Cuts: 70     1549     --- 
*     0+    0                           60.0000      137.7842           129.64%
*     0+    0                           62.0000      137.7842           122.23%
      0     0        cutoff             62.0000      137.7842     1549  122.23%
      0     2      137.7842   121       62.0000      137.7842     1549  122.23%
Elapsed time = 0.24 sec. (210.62 ticks, tree = 0.01 MB, solutions = 2)
*   109    87      integral     0      106.0000      137.7842     5067   29.99%
*   274   172      integral     0      120.0000      137.7652     7706   14.80%
    281   177      133.0000    92      120.0000      137.7652     7911   14.80%

Performing restart 1

Repeating presolve.
Tried aggregator 1 time.
MIP Presolve modified 593 coefficients.
Reduced MIP has 479 rows, 675 columns, and 2209 nonzeros.
Reduced MIP has 587 binaries, 63 generals, 0 SOSs, and 0 indicators.
Presolve time = 0.00 sec. (2.13 ticks)
Tried aggregator 1 time.
Reduced MIP has 479 rows, 675 columns, and 2209 nonzeros.
Reduced MIP has 587 binaries, 63 generals, 0 SOSs, and 0 indicators.
Presolve time = 0.00 sec. (1.73 ticks)
Represolve time = 0.01 sec. (10.47 ticks)
    503     0      136.3529   168      120.0000      Cuts: 73    14052   13.63%
    503     0      135.7387   168      120.0000     Cuts: 116    14256   13.12%
    503     0      135.6250   168      120.0000     Cuts: 136    14383   13.02%
    503     0      135.5000   168      120.0000     Cuts: 109    14499   12.92%
    503     0      135.4286   168      120.0000      Cuts: 83    14595   12.86%
    503     0      135.0000   168      120.0000      Cuts: 88    14689   12.50%
    503     0      135.0000   168      120.0000     Cuts: 102    14877   12.50%
    503     0      134.8197   168      120.0000      Cuts: 13    14947   12.35%
    503     0      134.6000   168      120.0000     Cuts: 150    15120   12.17%
    503     0      134.6000   168      120.0000     Cuts: 114    15210   12.17%
    503     0      134.4000   168      120.0000      Cuts: 18    15289   12.00%
    503     0      134.4000   168      120.0000      Cuts: 94    15460   12.00%
    503     0      134.4000   168      120.0000      Cuts: 37    15576   12.00%
    503     0      134.2857   168      120.0000      Cuts: 83    15709   11.90%
    503     0      134.0000   168      120.0000      Cuts: 89    15807   11.67%
    503     0      134.0000   168      120.0000      Cuts: 63    15938   11.67%
*   503+    0                          122.0000      134.0000             9.84%
    503     0        cutoff            122.0000      134.0000    15938    9.84%
    503     2      134.0000    75      122.0000      134.0000    15938    9.84%
    517    16      132.0000    67      122.0000      134.0000    16574    9.84%
    557    44      133.8717    93      122.0000      134.0000    17587    9.84%
    607    81      133.3085   116      122.0000      134.0000    19159    9.84%
    666   126      133.4640   120      122.0000      134.0000    21903    9.84%
    711   154      133.4286   100      122.0000      134.0000    25750    9.84%
    748   174      134.0000   114      122.0000      134.0000    29472    9.84%
    787   197      131.5047   103      122.0000      134.0000    33458    9.84%
    980   319      124.0200    85      122.0000      134.0000    47554    9.84%
Elapsed time = 3.68 sec. (4188.88 ticks, tree = 0.84 MB, solutions = 5)
   1109   402      132.4785   103      122.0000      134.0000    59925    9.84%
   1281   532      127.0000    59      122.0000      134.0000    73225    9.84%
   1458   641      130.0000   101      122.0000      134.0000    86784    9.84%
   1656   776        cutoff            122.0000      134.0000   102154    9.84%
   1842   884      127.6422    81      122.0000      133.7662   115584    9.64%
   2043  1003      129.4102   109      122.0000      133.3242   127374    9.28%
   2246  1124      129.8267   101      122.0000      133.0496   139967    9.06%
   2422  1227      129.5000   116      122.0000      132.9255   151796    8.96%
   2574  1296      127.1992    70      122.0000      132.4920   163485    8.60%
   2798  1423      128.0000    72      122.0000      132.0000   177298    8.20%
Elapsed time = 11.79 sec. (13831.67 ticks, tree = 5.71 MB, solutions = 5)
   3049  1593        cutoff            122.0000      132.0000   190715    8.20%
   3296  1769      132.0000   125      122.0000      132.0000   204653    8.20%
*  3503+ 1452                          124.0000      132.0000             6.45%
   3521  1465      132.0000   126      124.0000      132.0000   217872    6.45%
*  3587   999      integral     0      126.0000      132.0000   222015    4.76%
   3678  1027        cutoff            126.0000      132.0000   230491    4.76%
   3789  1081      130.8448   142      126.0000      132.0000   242163    4.76%
   3908  1125      128.0000   113      126.0000      131.9590   253002    4.73%
   4079  1159      128.7089   145      126.0000      131.7222   266746    4.54%
   4293  1218      130.9906    91      126.0000      131.4635   281008    4.34%
   4486  1256        cutoff            126.0000      131.1667   294971    4.10%
   4658  1304        cutoff            126.0000      131.0000   309789    3.97%
Elapsed time = 19.67 sec. (23432.61 ticks, tree = 6.72 MB, solutions = 7)
   4848  1340      127.6487    68      126.0000      130.6075   322687    3.66%
   5081  1407      128.5519    93      126.0000      130.3029   334903    3.42%
   5262  1387      128.0000    60      126.0000      130.0000   347668    3.17%
   5464  1405      130.0000    66      126.0000      130.0000   360660    3.17%
   5623  1410        cutoff            126.0000      130.0000   373864    3.17%
   5762  1407      128.9219   141      126.0000      130.0000   388744    3.17%
   5902  1389        cutoff            126.0000      130.0000   403936    3.17%
   6057  1410      130.0000    77      126.0000      130.0000   418419    3.17%
   6203  1399      130.0000   113      126.0000      130.0000   433037    3.17%
   6402  1460      128.0000    51      126.0000      130.0000   446839    3.17%
Elapsed time = 27.64 sec. (33027.06 ticks, tree = 7.97 MB, solutions = 7)
   6540  1453      129.9398   109      126.0000      130.0000   461352    3.17%
   6658  1435        cutoff            126.0000      130.0000   473997    3.17%
   6754  1430      129.5778   143      126.0000      130.0000   487510    3.17%
   6852  1424      128.0000   121      126.0000      130.0000   501568    3.17%
   6985  1427      128.4828   144      126.0000      130.0000   515190    3.17%
   7178  1432      128.0000    45      126.0000      129.9424   528569    3.13%
   7389  1389      128.7591    90      126.0000      129.8374   542117    3.05%
   7677  1369      128.0000    12      126.0000      129.6422   555221    2.89%
   7982  1291      128.0000    36      126.0000      129.3733   569079    2.68%
   8325  1232        cutoff            126.0000      129.1209   583980    2.48%
Elapsed time = 35.49 sec. (42623.93 ticks, tree = 6.68 MB, solutions = 7)
   8621  1200      128.0000    40      126.0000      129.0000   599486    2.38%
   9050  1080      128.0000    73      126.0000      128.5854   614026    2.05%
   9662   992      128.0000    18      126.0000      128.0000   628147    1.59%
  10335   909      128.0000    83      126.0000      128.0000   643845    1.59%
  10565   880    infeasible            126.0000      128.0000   650506    1.59%
  11198   794      128.0000    37      126.0000      128.0000   664929    1.59%
  11837   705        cutoff            126.0000      128.0000   679677    1.59%
  12397   604      128.0000    40      126.0000      128.0000   695429    1.59%
  13034   532      128.0000    34      126.0000      128.0000   711347    1.59%
  13768   441      128.0000    50      126.0000      128.0000   727448    1.59%
Elapsed time = 45.80 sec. (53802.86 ticks, tree = 2.06 MB, solutions = 7)
  14435   379        cutoff            126.0000      128.0000   743249    1.59%
  15022   310      127.8571   105      126.0000      128.0000   758991    1.59%
  15571   265      128.0000    46      126.0000      128.0000   775082    1.59%
  16095   191      128.0000    65      126.0000      128.0000   791087    1.59%
  16507   128        cutoff            126.0000      128.0000   806023    1.59%
  16794    31        cutoff            126.0000      128.0000   820656    1.59%
  16973     5        cutoff            126.0000      128.0000   835998    1.59%

GUB cover cuts applied:  97
Clique cuts applied:  76
Cover cuts applied:  39
Implied bound cuts applied:  61
Flow cuts applied:  27
Mixed integer rounding cuts applied:  197
Zero-half cuts applied:  57
Lift and project cuts applied:  10
Gomory fractional cuts applied:  8

Root node processing (before b&c):
  Real time             =    0.24 sec. (210.73 ticks)
Sequential b&c:
  Real time             =   51.16 sec. (60358.85 ticks)
                          ------------
Total (root+branch&cut) =   51.40 sec. (60569.58 ticks)

Solution pool: 8 solutions saved.

MIP - Integer optimal solution:  Objective =  1.2600000000e+02
Solution time =   51.40 sec.  Iterations = 836896  Nodes = 17009
Deterministic time = 60569.58 ticks  (1178.50 ticks/sec)


Incumbent solution
Variable Name           Solution Value
F                           126.000000
y6                            1.000000
y23                           1.000000
y30                           1.000000
y39                           1.000000
y47                           1.000000
y52                           1.000000
y76                           1.000000
y77                           1.000000
y119                          1.000000
y121                          1.000000
y162                          1.000000
y169                          1.000000
y171                          1.000000
y191                          1.000000
y204                          1.000000
y210                          1.000000
y211                          1.000000
y237                          1.000000
x50x30x1                      1.000000
x72x30x1                      1.000000
x193x121x1                    1.000000
x193x171x1                    1.000000
x200x162x1                    1.000000
x50x119x2                     1.000000
x72x23x2                      1.000000
x73x162x2                     1.000000
x146x121x2                    1.000000
x154x171x2                    1.000000
x200x204x2                    1.000000
x73x204x3                     1.000000
x124x77x3                     1.000000
x124x119x3                    1.000000
x203x52x3                     2.000000
x162x6x1                      1.000000
x6x0x1                        1.000000
x204x6x3                      1.000000
x6x0x3                        1.000000
x121x23x2                     1.000000
x23x76x2                      2.000000
x30x237x1                     2.000000
x119x39x2                     1.000000
x204x39x2                     1.000000
x39x0x2                       2.000000
x169x47x1                     1.000000
x47x0x1                       1.000000
x169x47x2                     1.000000
x47x0x2                       1.000000
x52x191x3                     1.000000
x52x211x3                     1.000000
x76x0x2                       2.000000
x171x77x1                     1.000000
x77x210x1                     1.000000
x77x210x3                     1.000000
x119x191x3                    1.000000
x121x169x1                    1.000000
x162x211x2                    1.000000
x171x169x2                    1.000000
x191x0x3                      2.000000
x210x0x1                      1.000000
x210x0x3                      1.000000
x211x0x2                      1.000000
x211x0x3                      1.000000
x237x0x1                      2.000000
s50                           5.257367
s2                            7.990000
s6                            8.991536
s23                           8.109107
z50z23z2                      1.000000
s25                           8.160000
s30                           7.365184
z50z30z1                      1.000000
s37                           6.330000
s39                           9.140000
z50z39z2                      1.000000
s47                           9.180000
s76                           9.230000
z50z76z2                      1.000000
s77                           8.098020
s96                           8.165279
z50z96z1                      1.000000
s105                          7.910000
z50z105z2                     1.000000
s111                          9.310000
s119                          7.980000
z50z119z2                     1.000000
s121                          6.639403
s151                          7.870000
z50z151z1                     1.000000
s152                          9.250000
z50z152z1                     1.000000
s161                          7.900000
s162                          7.875107
s166                          7.370273
s169                          8.126252
s171                          6.598794
s174                          6.530000
s184                          9.420000
s202                          9.250000
z50z202z2                     1.000000
s204                          7.470000
s210                          9.200000
s211                          9.060000
s217                          9.210000
z50z217z1                     1.000000
s237                          8.900000
z50z237z1                     1.000000
s72                           5.856250
z72z23z2                      1.000000
z72z30z1                      1.000000
z72z39z2                      1.000000
z72z76z2                      1.000000
z72z96z1                      1.000000
z72z105z2                     1.000000
z72z151z1                     1.000000
z72z152z1                     1.000000
z72z202z2                     1.000000
z72z217z1                     1.000000
z72z237z1                     1.000000
s73                           5.401900
z73z23z2                      1.000000
s35                           6.330000
z73z39z2                      1.000000
s52                           7.432394
z73z76z2                      1.000000
z73z105z2                     1.000000
z73z162z2                     1.000000
s191                          9.380000
z73z191z3                     1.000000
z73z202z2                     1.000000
z73z204z3                     1.000000
s86                           6.000000
s124                          5.942338
z124z77z3                     1.000000
z124z119z3                    1.000000
z124z191z3                    1.000000
s146                          4.300000
s21                           6.000000
z146z23z2                     1.000000
z146z37z2                     1.000000
z146z39z2                     1.000000
z146z76z2                     1.000000
z146z105z2                    1.000000
z146z121z2                    1.000000
z146z202z2                    1.000000
s154                          3.960231
z154z23z2                     1.000000
z154z37z2                     1.000000
z154z39z2                     1.000000
z154z76z2                     1.000000
z154z105z2                    1.000000
z154z171z2                    1.000000
z154z202z2                    1.000000
s193                          5.164895
z193z96z1                     1.000000
z193z121z1                    1.000000
z193z151z1                    1.000000
z193z152z1                    1.000000
z193z166z1                    1.000000
z193z171z1                    1.000000
z193z217z1                    1.000000
z193z237z1                    1.000000
s200                          5.770000
z200z23z2                     1.000000
z200z39z2                     1.000000
z200z76z2                     1.000000
z200z96z1                     1.000000
z200z105z2                    1.000000
z200z151z1                    1.000000
z200z152z1                    1.000000
z200z162z1                    1.000000
z200z202z2                    1.000000
z200z204z2                    1.000000
z200z217z1                    1.000000
z200z237z1                    1.000000
s203                          5.960000
z203z52z3                     1.000000
z203z191z3                    1.000000
z21z202z2                     1.000000
z23z76z2                      1.000000
s24                           6.000000
z30z237z1                     1.000000
z35z191z3                     1.000000
z37z23z2                      1.000000
z52z191z3                     1.000000
z52z211z3                     1.000000
z77z210z1                     1.000000
z77z210z3                     1.000000
z96z217z1                     1.000000
z105z39z2                     1.000000
z119z39z2                     1.000000
z119z191z3                    1.000000
z121z23z2                     1.000000
z121z169z1                    1.000000
z162z6z1                      1.000000
z162z211z2                    1.000000
z169z47z1                     1.000000
z169z47z2                     1.000000
z171z77z1                     1.000000
z171z169z2                    1.000000
s201                          6.000000
z204z6z3                      1.000000
z204z39z2                     1.000000
z204z191z3                    1.000000
All other variables in the range 1-1425 are 0.
